c colouring generated by benchmark framework
p edge 125 6961
v 1 7
v 2 13
v 3 51
v 4 15
v 5 49
v 6 29
v 7 0
v 8 0
v 9 24
v 10 31
v 11 21
v 12 48
v 13 10
v 14 11
v 15 23
v 16 18
v 17 34
v 18 37
v 19 47
v 20 46
v 21 16
v 22 36
v 23 6
v 24 45
v 25 43
v 26 37
v 27 54
v 28 40
v 29 16
v 30 53
v 31 30
v 32 3
v 33 33
v 34 4
v 35 26
v 36 11
v 37 5
v 38 33
v 39 57
v 40 22
v 41 15
v 42 48
v 43 25
v 44 6
v 45 43
v 46 18
v 47 39
v 48 22
v 49 1
v 50 0
v 51 13
v 52 34
v 53 21
v 54 35
v 55 24
v 56 12
v 57 50
v 58 19
v 59 6
v 60 45
v 61 25
v 62 35
v 63 49
v 64 39
v 65 27
v 66 8
v 67 20
v 68 14
v 69 1
v 70 2
v 71 50
v 72 23
v 73 18
v 74 5
v 75 49
v 76 26
v 77 3
v 78 41
v 79 46
v 80 38
v 81 4
v 82 28
v 83 10
v 84 47
v 85 36
v 86 43
v 87 51
v 88 20
v 89 32
v 90 31
v 91 34
v 92 17
v 93 13
v 94 19
v 95 42
v 96 19
v 97 44
v 98 30
v 99 38
v 100 8
v 101 53
v 102 56
v 103 35
v 104 17
v 105 52
v 106 7
v 107 39
v 108 14
v 109 52
v 110 29
v 111 23
v 112 2
v 113 27
v 114 24
v 115 47
v 116 15
v 117 40
v 118 12
v 119 58
v 120 9
v 121 16
v 122 9
v 123 32
v 124 60
v 125 41
